000 -99 000 000 000 000 000 000 -99 -99 -99 -99 000 000 000 000 -99 -99 -99 000 -99 000 -99 -99 000 000 -99 -99 -99 -99 -99
000 000 000 000 000 000 000 000 -99 -99 -99 -99 -99 000 000 000 -99 -99 -99 000 000 000 000 -99 000 000 -99 -99 -99 -99 -99
000 000 000 000 000 000 000 000 -99 -99 -99 -99 -99 -99 000 000 -99 -99 -99 000 -99 000 000 000 000 000 000 -99 -99 -99 -99
000 000 000 000 000 000 000 000 -99 -99 -99 -99 -99 -99 -99 000 -99 -99 -99 000 000 000 000 000 000 000 000 -99 -99 -99 -99
000 000 000 000 000 000 000 000 000 000 -99 -99 000 -99 -99 -99 -99 -99 -99 -99 000 000 000 000 000 000 -99 -99 -99 -99 -99
000 000 000 000 000 000 000 000 000 000 -99 -99 000 -99 -99 -99 -99 -99 -99 -99 000 000 000 000 000 000 -99 -99 -99 -99 -99
000 000 000 000 000 000 000 000 000 000 000 -99 -99 000 000 -99 -99 -99 -99 -99 000 000 -99 -99 000 000 -99 -99 -99 -99 -99
000 000 000 000 000 -99 000 000 000 000 000 -99 -99 -99 -99 -99 -99 000 -99 -99 000 000 000 -99 000 000 -99 -99 -99 -99 -99
000 000 000 000 000 000 000 000 000 000 000 000 -99 -99 -99 000 -99 000 -99 000 000 -99 -99 000 000 000 -99 -99 -99 -99 -99
000 000 000 000 000 000 000 000 000 000 000 000 -99 -99 -99 -99 000 000 000 000 000 000 -99 -99 000 000 -99 -99 000 000 000
000 000 000 000 000 -99 -99 000 000 000 000 000 -99 -99 -99 000 000 000 000 000 000 000 -99 -99 000 -99 -99 -99 000 000 000
000 000 000 000 000 000 000 000 000 000 000 000 -99 -99 -99 000 000 000 000 000 000 000 -99 000 000 -99 -99 -99 000 000 000
000 000 000 -99 000 000 000 000 000 000 000 000 -99 -99 -99 000 000 000 000 000 000 000 -99 000 000 -99 -99 -99 000 000 000
000 000 000 000 000 000 000 000 -99 -99 000 000 000 -99 -99 -99 000 -99 000 000 000 -99 -99 000 000 -99 000 -99 001 000 -99
000 000 000 000 000 000 000 000 -99 -99 -99 000 000 000 -99 000 000 000 000 -99 -99 -99 -99 000 000 000 000 000 004 -99 -99
000 000 000 000 000 000 000 000 000 000 -99 -99 000 000 -99 000 -99 000 000 -99 -99 -99 -99 000 000 000 000 002 016 -99 -99
-99 000 000 -99 -99 000 000 000 000 000 -99 -99 -99 -99 -99 000 000 000 000 -99 -99 -99 000 -99 000 000 -99 -99 017 019 -99
000 000 000 -99 -99 -99 000 000 000 000 -99 -99 -99 -99 -99 000 000 000 000 -99 -99 -99 000 -99 000 000 -99 -99 021 022 -99
000 000 000 -99 -99 -99 000 000 000 -99 -99 -99 -99 000 000 000 000 000 -99 -99 000 -99 000 -99 000 -99 -99 -99 -99 001 -99
000 000 000 000 -99 -99 000 000 -99 000 -99 -99 -99 000 000 -99 000 000 -99 000 000 000 000 -99 -99 -99 -99 -99 -99 -99 -99
000 000 000 000 000 -99 -99 000 000 000 -99 000 000 000 000 000 000 000 -99 -99 000 000 000 -99 -99 -99 -99 -99 -99 -99 -99
000 000 000 000 000 000 -99 000 000 000 000 000 000 000 000 000 000 -99 -99 -99 -99 000 000 -99 -99 -99 -99 -99 -99 -99 -99
000 000 000 000 000 000 000 000 000 000 000 000 001 000 000 000 000 000 000 000 -99 000 000 -99 -99 -99 -99 -99 -99 -99 -99
000 000 000 000 000 000 000 000 000 000 000 001 002 000 000 000 000 000 000 000 000 000 000 -99 -99 -99 -99 -99 -99 -99 -99
000 000 000 000 000 000 000 000 001 002 001 004 004 003 002 001 000 000 000 000 000 000 000 -99 -99 -99 -99 -99 -99 -99 -99
000 000 000 000 000 000 001 000 001 002 002 004 003 001 003 003 000 000 000 000 000 000 -99 -99 -99 -99 -99 -99 -99 -99 -99
000 000 000 000 000 000 000 001 002 003 003 002 002 003 006 002 001 000 000 000 000 000 000 -99 -99 -99 -99 -99 -99 -99 -99
000 000 000 000 000 000 001 001 002 003 004 002 002 003 004 002 001 000 000 000 000 000 000 -99 -99 -99 -99 -99 -99 -99 000
000 000 000 000 000 000 000 001 002 003 004 002 002 002 002 002 002 001 000 000 000 000 -99 -99 -99 -99 -99 -99 -99 -99 000
000 000 000 000 000 000 001 002 003 003 003 001 001 001 002 001 001 000 000 000 000 000 -99 -99 -99 -99 -99 -99 -99 -99 -99
000 000 001 002 002 001 002 003 002 001 002 001 001 002 003 003 002 001 000 000 -99 000 -99 -99 000 -99 -99 -99 -99 -99 000
000 001 001 001 002 002 002 002 001 001 001 001 001 002 003 002 001 001 000 000 -99 -99 000 000 000 -99 -99 -99 -99 -99 000
000 001 001 002 002 001 001 002 001 000 000 001 002 001 001 002 002 001 000 000 -99 -99 000 000 000 -99 -99 000 000 -99 000
000 000 000 000 000 000 001 000 000 000 000 001 002 001 001 001 001 001 001 000 -99 000 000 000 000 000 -99 000 000 000 000
000 000 000 000 000 000 000 001 000 000 000 000 001 001 000 001 000 000 000 000 000 000 000 000 000 000 000 000 000 000 000
000 000 000 000 000 000 000 000 000 000 000 001 001 001 000 001 000 000 000 000 000 000 000 000 000 000 000 000 000 000 000
000 000 000 000 000 000 000 000 000 000 000 000 001 001 001 000 000 000 000 000 000 000 000 000 000 000 000 000 000 000 000
000 000 000 000 000 000 000 000 000 000 000 000 000 000 000 000 000 000 000 000 000 000 000 000 000 000 000 000 -99 000 000
000 000 000 000 000 000 000 000 000 000 000 000 000 000 000 000 000 000 -99 000 000 000 000 000 000 000 000 000 -99 000 -99
000 000 000 000 000 000 000 000 -99 000 000 000 000 000 000 000 000 000 -99 -99 000 -99 000 000 000 000 000 000 000 000 -99
000 000 000 000 000 000 -99 -99 -99 000 000 000 000 000 000 000 -99 -99 000 000 000 000 000 000 000 000 000 000 000 000 000
000 000 000 000 000 000 000 000 -99 000 000 000 000 000 000 000 -99 000 000 000 000 -99 000 000 000 000 000 000 000 000 000
000 000 000 -99 000 000 000 000 -99 000 000 000 000 000 000 -99 -99 000 000 000 -99 000 000 000 000 000 000 000 000 -99 -99
000 000 -99 -99 000 000 000 000 -99 000 000 000 000 000 000 -99 000 000 000 000 000 000 000 000 000 000 000 000 -99 -99 -99
000 000 -99 -99 000 000 000 000 -99 000 000 000 000 000 -99 -99 000 000 000 -99 000 000 000 000 000 000 000 000 -99 -99 -99
000 -99 -99 -99 -99 -99 000 000 000 000 000 000 000 000 -99 -99 -99 000 000 000 000 000 000 000 000 000 000 000 -99 -99 -99
000 -99 -99 -99 -99 -99 000 000 000 000 000 000 000 -99 -99 -99 -99 -99 000 000 000 000 000 000 000 000 000 -99 -99 -99 000
-99 -99 -99 -99 -99 -99 -99 000 000 000 -99 000 -99 -99 -99 -99 -99 -99 -99 -99 000 000 000 000 000 000 000 -99 000 -99 -99
-99 -99 -99 -99 -99 -99 -99 000 000 000 -99 -99 -99 -99 -99 -99 -99 -99 -99 000 000 000 -99 000 000 000 -99 000 000 -99 -99
-99 -99 -99 -99 -99 -99 -99 -99 000 000 000 -99 -99 000 -99 -99 -99 -99 000 000 000 000 -99 000 000 -99 000 000 000 -99 -99
-99 -99 -99 -99 -99 -99 -99 000 000 000 000 -99 000 000 000 -99 -99 000 000 000 -99 -99 -99 -99 -99 -99 000 000 000 -99 -99
-99 -99 -99 -99 -99 -99 -99 000 000 000 000 000 000 000 -99 -99 -99 000 000 000 -99 -99 -99 -99 -99 000 000 000 -99 -99 -99
-99 -99 -99 -99 -99 -99 -99 000 000 000 000 -99 000 -99 000 000 000 000 000 -99 -99 -99 -99 -99 -99 -99 -99 -99 -99 -99 -99
-99 -99 -99 -99 -99 -99 -99 000 000 000 000 -99 000 -99 000 000 000 000 -99 -99 -99 -99 -99 -99 -99 -99 -99 -99 -99 -99 -99
-99 -99 -99 -99 -99 -99 -99 000 000 000 -99 -99 -99 -99 000 000 000 -99 -99 -99 -99 -99 -99 -99 -99 -99 -99 -99 -99 -99 -99
